CMD:
./solvers/bin/cadical --plain --no-reduce -t 1600 ./data/cnfs//pj2010/pj2010.67.cnf

c --- [ banner ] -------------------------------------------------------------
c 
c CaDiCaL SAT Solver
c Copyright (c) 2016-2024
c A. Biere, M. Fleury, N. Froleyks, K. Fazekas, F. Pollitt, T. Faller
c JKU Linz, University of Freiburg, TU Wien
c 
c Version 2.1.3 5296d3d2a9bf48c154ab2acb5e44625776d821bf
c g++ (Gentoo 12.3.1_p20230526 p2) 12.3.1 20230526 -Wall -Wextra -O3 -DNDEBUG
c Sat Aug 9 07:26:21 PDT 2025 Linux cedar2.int.cedar.computecanada.ca 5.14.0-362.24.2.el9_3.x86_64 x86_64
c 
c --- [ limit ] --------------------------------------------------------------
c 
c setting time limit to 1600 seconds real time (due to '-t 1600')
c 
c --- [ parsing input ] ------------------------------------------------------
c 
c reading DIMACS file from './data/cnfs//pj2010/pj2010.67.cnf'
c opening file to read './data/cnfs//pj2010/pj2010.67.cnf'
c found 'p cnf 1255541 3691735' header
c parsed 3691735 clauses in 0.57 seconds process time
c 
c --- [ options ] ------------------------------------------------------------
c 
c   --compact=false                (different from default 'true')
c   --decompose=false              (different from default 'true')
c   --deduplicate=false            (different from default 'true')
c   --elim=false                   (different from default 'true')
c   --probe=false                  (different from default 'true')
c   --reduce=false                 (different from default 'true')
c   --subsume=false                (different from default 'true')
c   --ternary=false                (different from default 'true')
c   --transred=false               (different from default 'true')
c   --vivify=false                 (different from default 'true')
c 
c --- [ solving ] ------------------------------------------------------------
c 
c time measured in process time since initialization
c 
c  seconds   reductions  redundant   irredundant
c          MB    restarts       trail         variables
c           level   conflicts       glue            remaining
c 
c *  0.57 568  0 0   0    0    0  0% 0 3663330 1219832 97%
c {  0.58 569  0 0   0    0    0  0% 0 3663330 1219832 97%
c i  0.59 569 271 0   2   47   45  4% 2 3663330 1219813 97%
c i  0.59 569 250 0   2   51   47  4% 1 3663330 1219741 97%
c i  0.59 569 245 0   2   52   47  4% 1 3663330 1219274 97%
c i  0.62 569 368 0  10  214  206  4% 2 3663330 1219184 97%
c i  0.98 571 1337 0  28  602  577  8% 2 3663330 1219183 97%
c i  0.99 571 1325 0  28  610  581  8% 2 3663330 1219177 97%
c i  0.99 571 1320 0  28  613  583  8% 2 3663330 1219176 97%
c i  0.99 571 1315 0  28  616  585  8% 2 3663330 1219175 97%
c i  0.99 571 1310 0  28  620  587  8% 2 3663330 1218869 97%
c i  1.00 571 1300 0  28  625  591  8% 2 3663330 1218748 97%
c i  1.00 571 1289 0  28  631  595  8% 2 3663330 1218009 97%
c i  1.00 571 1282 0  28  635  597  8% 2 3663330 1217914 97%
c i  1.00 571 1269 0  28  642  603  8% 2 3663330 1217775 97%
c i  1.00 571 1267 0  28  643  603  8% 2 3663330 1217732 97%
c i  1.00 571 1254 0  28  650  607  8% 2 3663330 1217544 97%
c i  1.00 571 1248 0  28  653  609  8% 2 3663330 1217543 97%
c i  1.00 571 1243 0  28  657  609  8% 2 3663330 1217521 97%
c i  1.00 571 1238 0  28  660  611  8% 2 3663330 1217501 97%
c 
c  seconds     reductions  redundant   irredundant
c          MB      restarts       trail         variables
c            level    conflicts       glue            remaining
c 
c i  1.00 571 1229 0  28  665  614  8% 2 3663330 1216613 97%
c i  1.00 571 1222 0  28  669  616  8% 2 3663330 1216584 97%
c i  1.00 571 1219 0  28  671  617  8% 2 3663330 1216567 97%
c i  1.00 571 1217 0  28  672  617  8% 2 3663330 1215910 97%
c }  1.00 571 1215 0  28  674  617  8% 2 3663330 1215737 97%
c 0  1.00 571 1215 0  28  674  617  8% 2 3663330 1215737 97%
c 
c --- [ result ] -------------------------------------------------------------
c 
s UNSATISFIABLE
c 
c --- [ run-time profiling ] -------------------------------------------------
c 
c process time taken by individual solving procedures
c (percentage relative to process time for solving)
c 
c         0.57  134.71% parse
c         0.42   99.97% search
c         0.42   97.70% unstable
c         0.01    2.27% lucky
c         0.00    0.00% simplify
c   =================================
c         0.43   42.58% solve
c 
c last line shows process time for solving
c (percentage relative to total process time)
c 
c --- [ statistics ] ---------------------------------------------------------
c 
c chronological:               402        59.64 %  of conflicts
c conflicts:                   674      1585.81    per second
c decisions:                 51165    120382.57    per second
c fixed:                     39804         3.17 %  of all variables
c learned:                     653        96.88 %  per conflict
c learned_lits:               4289       100.00 %  learned literals
c minimized:                     0         0.00 %  learned literals
c shrunken:                    450        10.49 %  learned literals
c minishrunken:                723        16.86 %  learned literals
c otfs:                         19         2.82 %  of conflict
c propagations:            2997306         7.05 M  per second
c restarts:                     28        24.07    interval
c subsumed:                     12         0.00 %  of all clauses
c strengthened:                 18         0.00 %  of all clauses
c 
c seconds are measured in process time for solving
c 
c --- [ resources ] ----------------------------------------------------------
c 
c total process time since initialization:         1.00    seconds
c total real time since initialization:            1.00    seconds
c maximum resident set size of process:          569.12    MB
c 
c --- [ shutting down ] ------------------------------------------------------
c 
c exit 20
